set VV := 0 1 2 3 4 5 6 7 8 9 10 11 12 13 14 15 16 17 18 19 20 21 22 23 24 25 26 27 28 29 30 31 32 33 34 35 36 ;
set VS := 0 1 2 3 4 5 6 7 8 9 10 11 12 13 14 15 16 17 18 19 20 21 22 23 24 25 26 27 28 29 30 31 32 33 34 35 36 37 38 39 40 41 42 43 44 45 46 47 48 49 50 51 52 53 54 55 56 57 58 59 60 61 62 63 64 65 66 67 68 69 70 71 72 73 74 75 76 77 ;
param cv := 
0 10
1 18
2 14
3 19
4 25
5 25
6 20
7 18
8 18
9 22
10 15
11 14
12 18
13 13
14 13
15 23
16 20
17 19
18 14
19 24
20 25
21 15
22 12
23 25
24 16
25 17
26 11
27 22
28 18
29 17
30 19
31 13
32 18
33 23
34 12
35 23
36 25
;
param cs := 
0 21
1 31
2 35
3 23
4 21
5 33
6 26
7 24
8 31
9 33
10 35
11 27
12 35
13 29
14 26
15 24
16 37
17 40
18 31
19 38
20 27
21 29
22 23
23 24
24 28
25 37
26 29
27 35
28 36
29 20
30 25
31 25
32 22
33 27
34 39
35 24
36 25
37 23
38 31
39 37
40 36
41 25
42 38
43 30
44 22
45 37
46 33
47 37
48 26
49 35
50 33
51 31
52 29
53 29
54 25
55 23
56 39
57 25
58 24
59 20
60 32
61 28
62 23
63 24
64 35
65 29
66 32
67 34
68 27
69 34
70 38
71 29
72 22
73 37
74 23
75 39
76 27
77 34
;
param bv:	 0 1 2 3 4 5 6 7 8 9 10 11 12 13 14 15 16 17 18 19 20 21 22 23 24 25 26 27 28 29 30 31 32 33 34 35 36 := 
		0 0 0 0 0 0 0 0 0 10 0 0 0 0 0 0 0 0 0 0 21 0 0 0 0 0 0 0 0 0 0 0 0 0 0 0 0 0 
		1 0 0 0 0 0 0 0 0 0 0 0 21 25 0 0 0 0 0 16 0 0 0 0 0 0 0 10 0 0 0 0 0 0 0 0 0 0 
		2 0 0 0 0 0 0 0 11 0 0 24 11 20 0 0 0 0 0 0 0 0 0 0 0 0 0 0 0 0 0 0 0 0 0 0 0 0 
		3 0 0 0 0 0 0 12 15 0 16 0 0 0 10 0 0 0 18 20 15 0 0 0 0 0 15 0 0 0 0 0 0 0 0 0 0 0 
		4 0 0 0 0 0 0 0 0 17 0 0 0 0 0 0 0 0 0 0 0 0 0 14 0 0 0 0 0 0 0 0 17 0 16 0 0 0 
		5 0 0 0 0 0 0 0 0 0 0 0 0 13 19 0 15 0 0 23 0 22 24 0 0 24 0 0 0 0 0 0 0 24 0 0 0 0 
		6 0 0 0 0 0 0 0 0 0 0 0 0 0 0 0 0 0 0 0 0 0 0 0 0 0 0 0 11 12 0 0 0 0 0 0 0 0 
		7 0 0 0 0 0 0 0 0 0 0 0 0 0 0 0 0 0 0 19 0 0 23 0 14 0 0 0 0 0 0 0 21 0 0 0 0 0 
		8 0 0 0 0 0 0 0 0 0 0 0 0 0 0 0 0 13 0 0 0 0 0 0 0 0 0 0 0 25 0 0 0 0 0 0 0 0 
		9 0 0 0 0 0 0 0 0 0 0 0 0 20 0 0 25 0 0 12 0 0 0 0 25 0 0 0 0 0 21 0 0 0 0 0 0 0 
		10 0 0 0 0 0 0 0 0 0 0 0 0 0 0 0 0 0 0 0 0 13 0 0 0 0 0 0 0 0 0 0 0 0 0 0 0 0 
		11 0 0 0 0 0 0 0 0 0 0 0 0 21 0 15 0 0 0 0 0 0 0 0 0 0 0 0 0 0 16 0 0 0 0 17 0 0 
		12 0 0 0 0 0 0 0 0 0 0 0 0 0 0 0 19 11 0 19 0 22 21 0 0 0 13 0 0 0 23 0 23 0 0 0 0 0 
		13 0 0 0 0 0 0 0 0 0 0 0 0 0 0 0 0 0 0 0 0 0 0 0 0 0 0 0 0 0 0 12 0 0 0 0 0 0 
		14 0 0 0 0 0 0 0 0 0 0 0 0 0 0 0 0 0 0 0 0 0 22 24 0 0 0 0 0 0 0 0 0 0 0 0 0 15 
		15 0 0 0 0 0 0 0 0 0 0 0 0 0 0 0 0 0 0 0 0 22 0 0 24 0 0 0 0 0 0 0 0 0 0 0 0 0 
		16 0 0 0 0 0 0 0 0 0 0 0 0 0 0 0 0 0 0 0 0 0 17 0 0 0 0 17 0 0 0 0 0 0 21 0 0 0 
		17 0 0 0 0 0 0 0 0 0 0 0 0 0 0 0 0 0 0 0 0 0 0 23 0 0 0 0 0 0 0 0 0 0 17 0 0 0 
		18 0 0 0 0 0 0 0 0 0 0 0 0 0 0 0 0 0 0 0 0 0 0 0 0 0 0 0 0 0 0 0 0 0 0 0 0 0 
		19 0 0 0 0 0 0 0 0 0 0 0 0 0 0 0 0 0 0 0 0 0 0 0 0 0 0 0 19 0 0 0 0 23 0 0 0 0 
		20 0 0 0 0 0 0 0 0 0 0 0 0 0 0 0 0 0 0 0 0 0 12 0 0 0 0 0 0 0 0 0 0 0 14 13 0 0 
		21 0 0 0 0 0 0 0 0 0 0 0 0 0 0 0 0 0 0 0 0 0 0 0 0 0 0 0 0 0 0 0 0 0 0 0 0 0 
		22 0 0 0 0 0 0 0 0 0 0 0 0 0 0 0 0 0 0 0 0 0 0 0 0 0 0 0 0 0 0 0 0 0 0 0 0 0 
		23 0 0 0 0 0 0 0 0 0 0 0 0 0 0 0 0 0 0 0 0 0 0 0 0 0 19 0 0 0 0 13 0 0 0 0 0 0 
		24 0 0 0 0 0 0 0 0 0 0 0 0 0 0 0 0 0 0 0 0 0 0 0 0 0 0 0 0 0 0 19 0 0 0 24 0 0 
		25 0 0 0 0 0 0 0 0 0 0 0 0 0 0 0 0 0 0 0 0 0 0 0 0 0 0 0 0 0 0 0 0 0 0 11 0 0 
		26 0 0 0 0 0 0 0 0 0 0 0 0 0 0 0 0 0 0 0 0 0 0 0 0 0 0 0 0 0 25 0 0 0 19 0 12 0 
		27 0 0 0 0 0 0 0 0 0 0 0 0 0 0 0 0 0 0 0 0 0 0 0 0 0 0 0 0 0 0 0 0 0 0 0 0 0 
		28 0 0 0 0 0 0 0 0 0 0 0 0 0 0 0 0 0 0 0 0 0 0 0 0 0 0 0 0 0 0 0 12 0 0 0 0 0 
		29 0 0 0 0 0 0 0 0 0 0 0 0 0 0 0 0 0 0 0 0 0 0 0 0 0 0 0 0 0 0 0 0 0 0 0 0 0 
		30 0 0 0 0 0 0 0 0 0 0 0 0 0 0 0 0 0 0 0 0 0 0 0 0 0 0 0 0 0 0 0 0 0 0 0 0 18 
		31 0 0 0 0 0 0 0 0 0 0 0 0 0 0 0 0 0 0 0 0 0 0 0 0 0 0 0 0 0 0 0 0 25 0 0 0 0 
		32 0 0 0 0 0 0 0 0 0 0 0 0 0 0 0 0 0 0 0 0 0 0 0 0 0 0 0 0 0 0 0 0 0 0 0 0 0 
		33 0 0 0 0 0 0 0 0 0 0 0 0 0 0 0 0 0 0 0 0 0 0 0 0 0 0 0 0 0 0 0 0 0 0 0 0 0 
		34 0 0 0 0 0 0 0 0 0 0 0 0 0 0 0 0 0 0 0 0 0 0 0 0 0 0 0 0 0 0 0 0 0 0 0 0 0 
		35 0 0 0 0 0 0 0 0 0 0 0 0 0 0 0 0 0 0 0 0 0 0 0 0 0 0 0 0 0 0 0 0 0 0 0 0 0 
		36 0 0 0 0 0 0 0 0 0 0 0 0 0 0 0 0 0 0 0 0 0 0 0 0 0 0 0 0 0 0 0 0 0 0 0 0 0 
;
param bs:	 0 1 2 3 4 5 6 7 8 9 10 11 12 13 14 15 16 17 18 19 20 21 22 23 24 25 26 27 28 29 30 31 32 33 34 35 36 37 38 39 40 41 42 43 44 45 46 47 48 49 50 51 52 53 54 55 56 57 58 59 60 61 62 63 64 65 66 67 68 69 70 71 72 73 74 75 76 77 := 
		0 0 0 0 34 26 0 0 0 0 0 0 0 21 0 38 0 0 0 0 0 0 0 0 0 0 0 0 0 0 0 0 0 0 0 0 0 0 0 29 0 0 0 0 0 0 0 0 0 0 0 0 0 0 0 0 0 21 24 0 0 0 34 0 0 0 35 0 0 0 0 38 0 0 0 0 0 0 0 
		1 0 0 0 0 0 0 0 35 0 0 0 0 0 0 0 0 0 0 0 0 0 0 0 0 0 0 0 31 32 0 0 0 0 0 0 0 0 0 24 0 0 0 22 37 0 0 0 0 0 0 0 0 32 0 0 0 0 31 0 0 0 35 0 0 0 40 0 0 0 0 0 0 0 0 0 31 0 0 
		2 0 0 0 0 0 0 0 0 0 0 0 0 0 0 0 0 0 0 0 0 30 0 0 0 0 0 0 0 0 0 0 0 0 0 0 0 0 0 0 0 33 0 0 28 0 0 0 0 0 0 0 0 0 0 0 0 0 0 0 0 0 0 0 0 0 32 0 0 0 0 35 24 0 0 0 0 0 20 
		3 34 0 0 0 0 0 0 0 0 0 39 0 0 0 0 0 0 0 0 0 0 0 33 24 0 35 0 0 24 0 0 0 0 0 0 0 0 0 0 0 0 31 0 0 36 0 0 0 0 0 0 0 0 0 0 0 0 0 0 0 0 30 0 0 33 0 20 0 0 0 0 0 0 23 0 0 0 20 
		4 26 0 0 0 0 0 0 0 0 0 0 0 0 0 23 0 0 0 0 0 0 0 0 0 0 0 31 0 0 0 0 0 0 0 0 0 0 0 30 26 20 0 0 0 22 0 0 0 0 0 0 0 0 0 0 0 0 0 0 0 0 0 0 0 0 0 0 0 0 0 0 0 0 0 0 0 0 0 
		5 0 0 0 0 0 0 0 0 0 0 0 0 0 0 36 0 0 0 39 0 0 0 0 0 0 0 37 0 0 0 0 0 0 28 0 30 0 0 37 0 29 36 0 0 0 0 0 23 0 0 0 34 39 0 0 0 0 0 34 0 0 0 0 0 0 0 0 0 31 0 0 0 0 0 0 0 0 0 
		6 0 0 0 0 0 0 0 0 0 0 0 0 0 0 0 0 0 0 0 31 0 0 0 0 0 0 0 0 0 0 37 0 0 0 0 0 0 0 0 0 0 0 0 39 0 0 0 0 0 0 0 0 0 0 0 0 25 38 0 0 0 0 0 0 0 0 0 0 0 0 0 0 0 0 0 40 0 0 
		7 0 35 0 0 0 0 0 0 0 0 0 0 0 0 0 0 0 0 0 0 0 0 0 0 0 0 0 0 0 0 30 39 0 0 0 24 0 0 39 0 0 38 40 0 0 0 0 0 0 0 0 0 0 0 0 0 0 0 31 0 0 0 0 0 0 0 29 0 0 0 0 0 0 0 0 0 0 24 
		8 0 0 0 0 0 0 0 0 0 0 0 35 0 0 0 0 0 0 0 0 0 0 0 0 0 0 0 0 23 0 0 0 0 0 0 0 0 0 0 0 0 0 0 0 0 0 0 0 0 0 0 0 0 29 0 0 0 0 0 0 0 0 0 0 0 0 0 0 0 0 0 0 0 0 0 0 0 0 
		9 0 0 0 0 0 0 0 0 0 0 0 21 0 0 0 0 0 0 30 0 0 0 0 0 0 0 0 0 0 25 0 0 0 0 0 0 0 0 0 0 0 0 0 0 0 0 0 0 0 0 0 0 0 0 0 0 22 0 26 0 0 0 0 0 0 0 0 0 0 0 0 0 0 0 0 0 0 0 
		10 0 0 0 39 0 0 0 0 0 0 0 0 0 0 0 0 0 0 0 0 34 0 30 0 0 0 0 0 0 0 0 0 29 0 0 0 0 0 0 0 39 0 0 0 0 26 0 0 0 0 0 39 0 0 0 0 0 0 0 26 0 0 0 0 0 0 0 0 31 0 0 27 0 0 0 26 32 0 
		11 0 0 0 0 0 0 0 0 35 21 0 0 0 0 0 0 0 0 0 22 0 0 0 0 0 27 0 0 0 0 23 0 33 0 37 0 0 0 0 0 0 0 0 0 0 0 0 0 0 0 0 0 0 0 0 0 0 0 0 0 27 0 0 0 34 0 0 0 0 0 0 0 0 0 0 0 0 0 
		12 21 0 0 0 0 0 0 0 0 0 0 0 0 0 0 0 0 0 0 0 0 0 30 0 0 0 0 0 0 0 37 0 0 0 38 0 0 23 0 0 0 0 0 0 0 0 0 0 0 0 0 0 33 0 29 0 0 0 39 0 28 21 0 0 0 20 39 0 0 0 0 0 0 0 40 0 0 27 
		13 0 0 0 0 0 0 0 0 0 0 0 0 0 0 0 0 0 0 0 0 0 0 0 0 0 0 0 0 0 0 0 0 0 0 0 0 0 0 0 34 0 0 0 0 0 0 0 0 0 0 0 0 38 0 0 0 28 0 0 0 0 0 0 0 0 0 0 0 0 0 33 0 0 0 0 0 0 0 
		14 38 0 0 0 23 36 0 0 0 0 0 0 0 0 0 20 0 23 0 0 25 0 0 0 0 40 22 0 0 0 0 0 0 0 0 0 0 0 23 0 0 27 0 0 0 0 0 0 0 0 0 0 0 0 0 0 0 0 0 0 0 0 0 0 28 0 0 0 0 0 0 32 0 24 0 0 0 0 
		15 0 0 0 0 0 0 0 0 0 0 0 0 0 0 20 0 0 38 34 24 0 0 0 0 0 0 35 0 0 0 0 0 0 0 0 37 0 0 0 0 0 0 0 32 0 0 34 0 0 0 0 0 0 0 36 37 0 0 0 0 0 0 0 0 25 0 0 0 0 0 0 37 0 32 0 0 0 0 
		16 0 0 0 0 0 0 0 0 0 0 0 0 0 0 0 0 0 0 0 0 34 0 0 0 0 0 0 22 0 0 0 0 0 35 0 0 0 0 0 0 28 0 0 0 0 37 0 0 0 0 0 36 26 0 0 0 0 0 0 0 0 0 0 0 20 39 0 32 0 0 0 0 0 0 0 0 0 0 
		17 0 0 0 0 0 0 0 0 0 0 0 0 0 0 23 38 0 0 29 0 0 0 0 0 0 0 0 0 0 36 0 22 0 0 0 0 33 0 0 0 0 0 0 0 23 0 0 0 0 0 0 0 0 0 0 0 0 0 0 0 0 24 0 0 0 0 0 39 0 0 0 0 0 40 0 0 0 0 
		18 0 0 0 0 0 39 0 0 0 30 0 0 0 0 0 34 0 29 0 0 0 0 0 0 0 0 0 0 24 0 26 0 0 0 0 0 26 0 40 0 0 37 0 0 30 0 0 0 0 0 0 0 0 0 0 0 0 0 0 26 0 0 0 0 0 0 34 0 0 0 0 0 0 0 37 0 0 0 
		19 0 0 0 0 0 0 31 0 0 0 0 22 0 0 0 24 0 0 0 0 0 0 0 0 0 0 0 0 0 0 0 0 0 0 0 0 0 0 0 0 0 0 0 0 0 0 0 0 0 0 35 0 0 0 0 26 0 0 0 0 0 0 0 0 0 0 0 0 0 0 0 0 0 0 0 25 0 0 
		20 0 0 30 0 0 0 0 0 0 0 34 0 0 0 25 0 34 0 0 0 0 0 0 22 0 0 0 0 0 0 0 0 32 0 0 0 0 0 0 0 0 36 0 0 0 0 0 0 0 0 0 0 0 39 0 0 0 0 0 0 0 35 0 0 22 0 0 0 0 0 0 0 0 0 0 0 0 33 
		21 0 0 0 0 0 0 0 0 0 0 0 0 0 0 0 0 0 0 0 0 0 0 0 0 0 0 0 0 0 0 0 0 0 0 0 0 0 0 0 0 0 0 39 0 0 0 0 0 0 0 0 0 0 0 35 0 0 0 0 0 0 0 0 0 0 0 0 0 0 0 0 20 23 0 35 0 0 0 
		22 0 0 0 33 0 0 0 0 0 0 30 0 30 0 0 0 0 0 0 0 0 0 0 0 0 0 37 0 0 0 0 0 0 0 0 0 0 0 0 0 0 32 0 0 0 0 0 0 0 0 0 0 0 32 30 27 0 0 0 0 40 0 0 0 0 0 0 0 0 0 0 0 0 0 31 0 0 0 
		23 0 0 0 24 0 0 0 0 0 0 0 0 0 0 0 0 0 0 0 0 22 0 0 0 0 0 0 0 0 0 0 0 0 0 0 0 29 0 0 0 0 0 0 0 0 0 0 0 0 0 0 0 33 0 0 0 0 0 0 0 0 0 0 0 21 0 0 0 0 0 0 0 0 20 0 0 0 0 
		24 0 0 0 0 0 0 0 0 0 0 0 0 0 0 0 0 0 0 0 0 0 0 0 0 0 0 29 0 0 0 0 0 0 0 0 0 0 0 0 0 0 0 0 0 33 0 0 0 0 0 0 0 0 20 27 0 0 0 0 0 0 0 0 0 0 0 0 0 0 0 31 35 0 0 0 0 0 0 
		25 0 0 0 35 0 0 0 0 0 0 0 27 0 0 40 0 0 0 0 0 0 0 0 0 0 0 30 0 0 0 0 0 0 0 0 0 0 0 0 0 0 0 0 0 0 0 0 33 0 0 38 0 0 0 0 0 32 0 31 0 0 0 0 0 0 0 0 33 0 20 23 29 0 0 0 0 0 24 
		26 0 0 0 0 31 37 0 0 0 0 0 0 0 0 22 35 0 0 0 0 0 0 37 0 29 30 0 0 0 0 0 0 29 0 0 0 0 0 0 0 0 0 0 0 0 0 0 0 0 29 0 0 0 0 0 0 0 0 0 0 0 0 36 0 34 0 0 0 0 0 0 0 0 0 0 0 39 0 
		27 0 31 0 0 0 0 0 0 0 0 0 0 0 0 0 0 22 0 0 0 0 0 0 0 0 0 0 0 0 0 0 35 0 0 25 0 30 0 0 27 0 0 0 0 0 0 0 0 0 0 0 0 0 35 0 0 0 0 0 0 0 0 0 0 0 0 0 32 0 0 0 0 0 28 0 0 0 0 
		28 0 32 0 24 0 0 0 0 23 0 0 0 0 0 0 0 0 0 24 0 0 0 0 0 0 0 0 0 0 0 0 0 0 0 0 0 37 0 0 0 0 0 38 0 0 0 0 0 0 0 0 0 0 20 31 0 0 25 0 0 0 0 0 0 0 0 0 0 0 0 0 32 0 0 0 0 0 0 
		29 0 0 0 0 0 0 0 0 0 25 0 0 0 0 0 0 0 36 0 0 0 0 0 0 0 0 0 0 0 0 0 0 20 26 0 0 0 0 0 0 0 40 0 0 0 34 0 29 0 0 0 0 0 0 0 0 0 0 0 0 0 0 0 0 0 0 0 0 23 0 0 0 0 0 0 0 0 0 
		30 0 0 0 0 0 0 37 30 0 0 0 23 37 0 0 0 0 0 26 0 0 0 0 0 0 0 0 0 0 0 0 0 0 0 0 24 0 0 0 0 0 0 28 0 0 0 0 0 0 0 0 0 0 0 0 0 0 30 0 0 0 36 0 0 0 0 0 0 0 33 0 0 0 0 0 0 0 0 
		31 0 0 0 0 0 0 0 39 0 0 0 0 0 0 0 0 0 22 0 0 0 0 0 0 0 0 0 35 0 0 0 0 0 0 0 34 0 0 0 0 0 0 0 0 0 0 0 0 0 39 0 0 0 0 0 0 0 0 0 0 0 0 0 0 0 0 0 0 0 37 0 0 0 0 0 0 0 0 
		32 0 0 0 0 0 0 0 0 0 0 29 33 0 0 0 0 0 0 0 0 32 0 0 0 0 0 29 0 0 20 0 0 0 0 29 0 0 0 0 0 0 0 0 0 0 0 0 0 0 0 0 0 0 0 0 21 0 0 0 22 0 0 32 33 0 0 0 0 0 0 38 0 0 0 0 0 0 38 
		33 0 0 0 0 0 28 0 0 0 0 0 0 0 0 0 0 35 0 0 0 0 0 0 0 0 0 0 0 0 26 0 0 0 0 0 40 0 0 0 0 0 40 0 0 0 0 0 0 0 0 0 0 0 0 22 0 0 0 0 0 0 0 0 0 0 0 0 0 0 0 30 0 0 0 0 0 0 39 
		34 0 0 0 0 0 0 0 0 0 0 0 37 38 0 0 0 0 0 0 0 0 0 0 0 0 0 0 25 0 0 0 0 29 0 0 0 35 0 0 0 0 35 0 0 0 0 0 0 0 0 0 0 27 0 0 0 0 0 0 0 0 0 0 0 37 0 22 0 0 34 0 0 0 20 0 0 0 0 
		35 0 0 0 0 0 30 0 24 0 0 0 0 0 0 0 37 0 0 0 0 0 0 0 0 0 0 0 0 0 0 24 34 0 40 0 0 0 0 25 0 0 0 0 28 0 0 0 0 37 0 0 0 0 0 0 0 0 0 25 0 0 33 0 0 32 0 0 29 0 20 36 0 0 27 0 0 0 0 
		36 0 0 0 0 0 0 0 0 0 0 0 0 0 0 0 0 0 33 26 0 0 0 0 29 0 0 0 30 37 0 0 0 0 0 35 0 0 0 22 0 0 0 0 0 0 0 0 0 0 0 35 25 0 36 0 20 0 0 0 0 0 27 0 0 0 28 0 39 0 0 0 0 0 0 0 0 0 0 
		37 0 0 0 0 0 0 0 0 0 0 0 0 23 0 0 0 0 0 0 0 0 0 0 0 0 0 0 0 0 0 0 0 0 0 0 0 0 0 0 0 0 0 0 0 0 0 0 0 0 0 0 0 0 0 0 0 0 0 0 0 0 0 37 0 30 0 0 0 0 35 0 0 0 0 0 0 0 0 
		38 29 24 0 0 30 37 0 39 0 0 0 0 0 0 23 0 0 0 40 0 0 0 0 0 0 0 0 0 0 0 0 0 0 0 0 25 22 0 0 22 0 0 0 0 33 30 0 33 36 0 0 0 0 35 0 0 0 0 0 23 0 0 0 0 0 0 39 0 27 0 0 32 0 27 0 0 0 0 
		39 0 0 0 0 26 0 0 0 0 0 0 0 0 34 0 0 0 0 0 0 0 0 0 0 0 0 0 27 0 0 0 0 0 0 0 0 0 0 22 0 0 0 0 0 0 0 0 0 0 21 0 36 0 0 0 0 0 0 0 0 0 0 0 0 0 0 0 0 0 0 37 0 0 0 0 0 0 0 
		40 0 0 33 0 20 29 0 0 0 0 39 0 0 0 0 0 28 0 0 0 0 0 0 0 0 0 0 0 0 0 0 0 0 0 0 0 0 0 0 0 0 0 0 0 0 0 0 0 0 0 0 0 31 0 0 0 0 0 0 0 0 0 0 0 0 0 36 0 22 0 0 0 0 0 0 0 0 0 
		41 0 0 0 31 0 36 0 38 0 0 0 0 0 0 27 0 0 0 37 0 36 0 32 0 0 0 0 0 0 40 0 0 0 40 35 0 0 0 0 0 0 0 0 0 0 0 0 0 0 0 0 0 0 0 0 0 0 0 0 0 0 31 34 0 29 0 0 0 0 0 0 0 0 20 0 0 0 0 
		42 0 22 0 0 0 0 0 40 0 0 0 0 0 0 0 0 0 0 0 0 0 39 0 0 0 0 0 0 38 0 28 0 0 0 0 0 0 0 0 0 0 0 0 0 0 0 0 0 0 0 0 0 0 0 20 0 0 0 0 0 23 0 0 0 0 0 0 0 0 0 0 0 30 0 0 0 0 0 
		43 0 37 28 0 0 0 39 0 0 0 0 0 0 0 0 32 0 0 0 0 0 0 0 0 0 0 0 0 0 0 0 0 0 0 0 28 0 0 0 0 0 0 0 0 27 0 25 35 37 0 0 0 0 28 26 23 0 0 0 0 0 0 0 32 0 0 0 0 0 0 0 0 0 0 0 0 39 0 
		44 0 0 0 36 22 0 0 0 0 0 0 0 0 0 0 0 0 23 30 0 0 0 0 0 33 0 0 0 0 0 0 0 0 0 0 0 0 0 33 0 0 0 0 27 0 0 0 0 0 0 0 0 37 21 0 27 0 0 0 40 0 23 20 0 0 27 0 0 0 26 0 0 0 26 0 0 0 0 
		45 0 0 0 0 0 0 0 0 0 0 26 0 0 0 0 0 37 0 0 0 0 0 0 0 0 0 0 0 0 34 0 0 0 0 0 0 0 0 30 0 0 0 0 0 0 0 0 0 0 0 0 21 0 0 0 0 0 0 0 0 0 29 0 0 0 0 0 0 20 0 0 40 0 0 0 0 0 23 
		46 0 0 0 0 0 0 0 0 0 0 0 0 0 0 0 34 0 0 0 0 0 0 0 0 0 0 0 0 0 0 0 0 0 0 0 0 0 0 0 0 0 0 0 25 0 0 0 0 0 0 0 0 0 0 0 40 0 0 0 0 0 0 0 0 0 0 0 0 0 34 0 0 0 0 0 0 0 0 
		47 0 0 0 0 0 23 0 0 0 0 0 0 0 0 0 0 0 0 0 0 0 0 0 0 0 33 0 0 0 29 0 0 0 0 0 0 0 0 33 0 0 0 0 35 0 0 0 0 0 0 0 0 0 0 0 0 0 0 0 0 0 23 0 0 0 0 0 37 28 29 23 0 0 36 0 0 0 0 
		48 0 0 0 0 0 0 0 0 0 0 0 0 0 0 0 0 0 0 0 0 0 0 0 0 0 0 0 0 0 0 0 0 0 0 0 37 0 0 36 0 0 0 0 37 0 0 0 0 0 0 0 0 0 0 0 25 40 0 23 0 0 0 0 0 0 0 0 0 0 0 0 0 0 0 0 0 0 0 
		49 0 0 0 0 0 0 0 0 0 0 0 0 0 0 0 0 0 0 0 0 0 0 0 0 0 0 29 0 0 0 0 39 0 0 0 0 0 0 0 21 0 0 0 0 0 0 0 0 0 0 0 0 0 0 0 0 0 0 0 0 0 0 20 0 0 0 0 0 0 0 0 0 0 0 0 0 0 0 
		50 0 0 0 0 0 0 0 0 0 0 0 0 0 0 0 0 0 0 0 35 0 0 0 0 0 38 0 0 0 0 0 0 0 0 0 0 35 0 0 0 0 0 0 0 0 0 0 0 0 0 0 0 0 23 0 0 0 0 0 31 0 0 24 0 0 0 27 0 0 0 0 38 0 0 0 0 0 22 
		51 0 0 0 0 0 34 0 0 0 0 39 0 0 0 0 0 36 0 0 0 0 0 0 0 0 0 0 0 0 0 0 0 0 0 0 0 25 0 0 36 0 0 0 0 0 21 0 0 0 0 0 0 33 0 0 0 0 0 0 29 0 0 0 0 0 0 0 31 0 0 0 0 0 0 0 0 0 0 
		52 0 32 0 0 0 39 0 0 0 0 0 0 33 38 0 0 26 0 0 0 0 0 0 33 0 0 0 0 0 0 0 0 0 0 27 0 0 0 0 0 31 0 0 0 37 0 0 0 0 0 0 33 0 0 0 0 0 0 0 0 0 0 0 0 0 0 22 0 0 0 0 27 0 0 0 0 0 0 
		53 0 0 0 0 0 0 0 0 29 0 0 0 0 0 0 0 0 0 0 0 39 0 32 0 20 0 0 35 20 0 0 0 0 0 0 0 36 0 35 0 0 0 0 28 21 0 0 0 0 0 23 0 0 0 0 25 0 0 0 0 0 0 0 0 0 0 0 0 0 0 0 0 0 36 0 0 0 0 
		54 0 0 0 0 0 0 0 0 0 0 0 0 29 0 0 36 0 0 0 0 0 35 30 0 27 0 0 0 31 0 0 0 0 22 0 0 0 0 0 0 0 0 20 26 0 0 0 0 0 0 0 0 0 0 0 0 0 0 0 0 0 0 0 0 0 0 0 20 0 0 0 0 0 0 39 0 0 0 
		55 0 0 0 0 0 0 0 0 0 0 0 0 0 0 0 37 0 0 0 26 0 0 27 0 0 0 0 0 0 0 0 0 21 0 0 0 20 0 0 0 0 0 0 23 27 0 40 0 25 0 0 0 0 25 0 0 0 0 0 0 0 33 0 0 0 0 0 38 0 0 0 0 0 0 0 0 0 0 
		56 21 0 0 0 0 0 25 0 0 22 0 0 0 28 0 0 0 0 0 0 0 0 0 0 0 32 0 0 0 0 0 0 0 0 0 0 0 0 0 0 0 0 0 0 0 0 0 0 40 0 0 0 0 0 0 0 0 0 23 33 0 0 0 0 38 0 35 0 0 0 0 0 0 0 0 0 0 0 
		57 24 31 0 0 0 0 38 0 0 0 0 0 0 0 0 0 0 0 0 0 0 0 0 0 0 0 0 0 25 0 30 0 0 0 0 0 0 0 0 0 0 0 0 0 0 0 0 0 0 0 0 0 0 0 0 0 0 0 0 0 0 0 0 0 0 0 0 0 0 0 0 0 23 0 0 0 0 0 
		58 0 0 0 0 0 34 0 31 0 26 0 0 39 0 0 0 0 0 0 0 0 0 0 0 0 31 0 0 0 0 0 0 0 0 0 25 0 0 0 0 0 0 0 0 0 0 0 0 23 0 0 0 0 0 0 0 23 0 0 0 0 0 27 0 38 0 27 0 0 0 0 0 0 33 0 0 0 0 
		59 0 0 0 0 0 0 0 0 0 0 26 0 0 0 0 0 0 0 26 0 0 0 0 0 0 0 0 0 0 0 0 0 22 0 0 0 0 0 23 0 0 0 0 0 40 0 0 0 0 0 31 29 0 0 0 0 33 0 0 0 0 0 0 0 0 0 0 0 31 0 0 0 0 0 0 0 0 0 
		60 0 0 0 0 0 0 0 0 0 0 0 27 28 0 0 0 0 0 0 0 0 0 40 0 0 0 0 0 0 0 0 0 0 0 0 0 0 0 0 0 0 0 23 0 0 0 0 0 0 0 0 0 0 0 0 0 0 0 0 0 0 0 0 0 0 0 0 0 0 0 0 0 0 0 0 32 0 0 
		61 34 35 0 30 0 0 0 0 0 0 0 0 21 0 0 0 0 24 0 0 35 0 0 0 0 0 0 0 0 0 36 0 0 0 0 33 27 0 0 0 0 31 0 0 23 29 0 23 0 0 0 0 0 0 0 33 0 0 0 0 0 0 0 0 0 22 0 0 0 0 0 0 0 0 0 31 0 0 
		62 0 0 0 0 0 0 0 0 0 0 0 0 0 0 0 0 0 0 0 0 0 0 0 0 0 0 36 0 0 0 0 0 32 0 0 0 0 37 0 0 0 34 0 0 20 0 0 0 0 20 24 0 0 0 0 0 0 0 27 0 0 0 0 36 0 0 0 0 40 0 0 0 0 32 0 0 0 25 
		63 0 0 0 0 0 0 0 0 0 0 0 0 0 0 0 0 0 0 0 0 0 0 0 0 0 0 0 0 0 0 0 0 33 0 0 0 0 0 0 0 0 0 0 32 0 0 0 0 0 0 0 0 0 0 0 0 0 0 0 0 0 0 36 0 0 0 0 0 0 0 0 0 0 0 0 0 0 0 
		64 0 0 0 33 0 0 0 0 0 0 0 34 0 0 28 25 20 0 0 0 22 0 0 21 0 0 34 0 0 0 0 0 0 0 37 32 0 30 0 0 0 29 0 0 0 0 0 0 0 0 0 0 0 0 0 0 38 0 38 0 0 0 0 0 0 0 0 36 0 0 0 31 0 0 0 0 0 0 
		65 35 40 32 0 0 0 0 0 0 0 0 0 20 0 0 0 39 0 0 0 0 0 0 0 0 0 0 0 0 0 0 0 0 0 0 0 28 0 0 0 0 0 0 0 27 0 0 0 0 0 0 0 0 0 0 0 0 0 0 0 0 22 0 0 0 0 0 0 0 0 29 22 0 0 0 0 0 0 
		66 0 0 0 20 0 0 0 29 0 0 0 0 39 0 0 0 0 0 34 0 0 0 0 0 0 0 0 0 0 0 0 0 0 0 22 0 0 0 39 0 36 0 0 0 0 0 0 0 0 0 27 0 22 0 0 0 35 0 27 0 0 0 0 0 0 0 0 0 0 0 0 0 0 0 0 0 0 0 
		67 0 0 0 0 0 0 0 0 0 0 0 0 0 0 0 0 32 39 0 0 0 0 0 0 0 33 0 32 0 0 0 0 0 0 0 29 39 0 0 0 0 0 0 0 0 0 0 37 0 0 0 31 0 0 20 38 0 0 0 0 0 0 0 0 36 0 0 0 36 0 0 0 0 0 0 0 0 0 
		68 0 0 0 0 0 31 0 0 0 0 31 0 0 0 0 0 0 0 0 0 0 0 0 0 0 0 0 0 0 23 0 0 0 0 0 0 0 0 27 0 22 0 0 0 0 20 0 28 0 0 0 0 0 0 0 0 0 0 0 31 0 0 40 0 0 0 0 36 0 0 0 23 0 0 0 0 0 0 
		69 0 0 0 0 0 0 0 0 0 0 0 0 0 0 0 0 0 0 0 0 0 0 0 0 0 20 0 0 0 0 33 37 0 0 34 20 0 35 0 0 0 0 0 0 26 0 34 29 0 0 0 0 0 0 0 0 0 0 0 0 0 0 0 0 0 0 0 0 0 0 0 0 0 0 0 0 0 0 
		70 38 0 35 0 0 0 0 0 0 0 0 0 0 33 0 0 0 0 0 0 0 0 0 0 31 23 0 0 0 0 0 0 38 30 0 36 0 0 0 37 0 0 0 0 0 0 0 23 0 0 0 0 0 0 0 0 0 0 0 0 0 0 0 0 0 29 0 0 0 0 0 0 0 27 0 0 0 23 
		71 0 0 24 0 0 0 0 0 0 0 27 0 0 0 32 37 0 0 0 0 0 20 0 0 35 29 0 0 32 0 0 0 0 0 0 0 0 0 32 0 0 0 0 0 0 40 0 0 0 0 38 0 27 0 0 0 0 0 0 0 0 0 0 0 31 22 0 0 23 0 0 0 0 0 0 0 0 0 
		72 0 0 0 0 0 0 0 0 0 0 0 0 0 0 0 0 0 0 0 0 0 23 0 0 0 0 0 0 0 0 0 0 0 0 0 0 0 0 0 0 0 0 30 0 0 0 0 0 0 0 0 0 0 0 0 0 0 23 0 0 0 0 0 0 0 0 0 0 0 0 0 0 0 0 0 0 0 0 
		73 0 0 0 23 0 0 0 0 0 0 0 0 0 0 24 32 0 40 0 0 0 0 0 20 0 0 0 28 0 0 0 0 0 0 20 27 0 0 27 0 0 20 0 0 26 0 0 36 0 0 0 0 0 36 0 0 0 0 33 0 0 0 32 0 0 0 0 0 0 0 27 0 0 0 0 0 0 0 
		74 0 0 0 0 0 0 0 0 0 0 0 0 40 0 0 0 0 0 37 0 0 35 31 0 0 0 0 0 0 0 0 0 0 0 0 0 0 0 0 0 0 0 0 0 0 0 0 0 0 0 0 0 0 0 39 0 0 0 0 0 0 0 0 0 0 0 0 0 0 0 0 0 0 0 0 0 0 0 
		75 0 31 0 0 0 0 40 0 0 0 26 0 0 0 0 0 0 0 0 25 0 0 0 0 0 0 0 0 0 0 0 0 0 0 0 0 0 0 0 0 0 0 0 0 0 0 0 0 0 0 0 0 0 0 0 0 0 0 0 0 32 31 0 0 0 0 0 0 0 0 0 0 0 0 0 0 0 0 
		76 0 0 0 0 0 0 0 0 0 0 32 0 0 0 0 0 0 0 0 0 0 0 0 0 0 0 39 0 0 0 0 0 0 0 0 0 0 0 0 0 0 0 0 39 0 0 0 0 0 0 0 0 0 0 0 0 0 0 0 0 0 0 0 0 0 0 0 0 0 0 0 0 0 0 0 0 0 0 
		77 0 0 20 20 0 0 0 24 0 0 0 0 27 0 0 0 0 0 0 0 33 0 0 0 0 24 0 0 0 0 0 0 38 39 0 0 0 0 0 0 0 0 0 0 0 23 0 0 0 0 22 0 0 0 0 0 0 0 0 0 0 0 25 0 0 0 0 0 0 0 23 0 0 0 0 0 0 0 
;
